% instance size is  20
nitems= 20 ;
capacity= 2943 ;
gain= [708, 1464, 1062, 1098, 915, 236, 915, 1830, 354, 549, 1180, 1098, 1098, 1464, 472, 1180, 732, 1830, 1281, 732] ;
weight= [576, 168, 864, 126, 105, 192, 105, 210, 288, 63, 960, 126, 126, 168, 384, 960, 84, 210, 147, 84] ;
